p cnf 159 557
-51 -159 0
-51 -158 0
-45 -157 0
-45 -156 0
-44 155 0
-50 -155 0
-44 -154 0
-38 -153 0
-38 152 0
-46 -152 0
-37 -151 0
-37 150 0
-43 151 0
-43 -150 0
-49 -151 0
-49 -150 0
-37 -149 0
-31 -148 0
-31 -147 0
-31 146 0
-39 147 0
-39 -146 0
-47 -147 0
-47 -146 0
-30 145 0
-30 144 0
-36 -145 0
-36 144 0
-42 145 0
-42 -144 0
-48 -145 0
-48 -144 0
-30 -143 0
-24 -142 0
-24 141 0
-24 140 0
-32 -141 0
-32 140 0
-40 141 0
-40 -140 0
-48 -141 0
-48 -140 0
-23 -139 0
-23 -138 0
-23 137 0
-29 139 0
-29 138 0
-29 -137 0
-35 -139 0
-35 138 0
-35 -137 0
-41 139 0
-41 -138 0
-41 -137 0
-47 -139 0
-47 -138 0
-47 -137 0
-23 -136 0
-17 -135 0
-17 -134 0
-17 -133 0
-17 132 0
-25 134 0
-25 133 0
-25 -132 0
-33 -134 0
-33 133 0
-33 -132 0
-41 134 0
-41 -133 0
-41 -132 0
-49 -134 0
-49 -133 0
-49 -132 0
-16 131 0
-16 -130 0
-16 129 0
-22 -131 0
-22 -130 0
-22 129 0
-28 131 0
-28 130 0
-28 -129 0
-34 -131 0
-34 130 0
-34 -129 0
-40 131 0
-40 -130 0
-40 -129 0
-46 -131 0
-46 -130 0
-46 -129 0
-16 -128 0
-10 -127 0
-10 126 0
-10 -125 0
-10 124 0
-18 -126 0
-18 -125 0
-18 124 0
-26 126 0
-26 125 0
-26 -124 0
-34 -126 0
-34 125 0
-34 -124 0
-42 126 0
-42 -125 0
-42 -124 0
-50 -126 0
-50 -125 0
-50 -124 0
-9 -123 0
-9 122 0
-9 121 0
-15 123 0
-15 -122 0
-15 121 0
-21 -123 0
-21 -122 0
-21 121 0
-27 123 0
-27 122 0
-27 -121 0
-33 -123 0
-33 122 0
-33 -121 0
-39 123 0
-39 -122 0
-39 -121 0
-45 -123 0
-45 -122 0
-45 -121 0
-9 -120 0
-8 119 0
-8 -118 0
-8 117 0
-14 -119 0
-14 -118 0
-14 117 0
-20 119 0
-20 118 0
-20 -117 0
-26 -119 0
-26 118 0
-26 -117 0
-32 119 0
-32 -118 0
-32 -117 0
-38 -119 0
-38 -118 0
-38 -117 0
-8 116 0
-16 -116 0
-7 -115 0
-7 -114 0
-7 113 0
-13 115 0
-13 114 0
-13 -113 0
-19 -115 0
-19 114 0
-19 -113 0
-25 115 0
-25 -114 0
-25 -113 0
-31 -115 0
-31 -114 0
-31 -113 0
-7 -112 0
-7 111 0
-15 112 0
-15 -111 0
-23 -112 0
-23 -111 0
-6 110 0
-6 109 0
-12 -110 0
-12 109 0
-18 110 0
-18 -109 0
-24 -110 0
-24 -109 0
-6 108 0
-6 107 0
-14 -108 0
-14 107 0
-22 108 0
-22 -107 0
-30 -108 0
-30 -107 0
-5 -106 0
-5 105 0
-11 106 0
-11 -105 0
-17 -106 0
-17 -105 0
-5 -104 0
-5 -103 0
-5 102 0
-13 104 0
-13 103 0
-13 -102 0
-21 -104 0
-21 103 0
-21 -102 0
-29 104 0
-29 -103 0
-29 -102 0
-37 -104 0
-37 -103 0
-37 -102 0
-4 101 0
-10 -101 0
-4 100 0
-4 -99 0
-4 98 0
-12 -100 0
-12 -99 0
-12 98 0
-20 100 0
-20 99 0
-20 -98 0
-28 -100 0
-28 99 0
-28 -98 0
-36 100 0
-36 -99 0
-36 -98 0
-44 -100 0
-44 -99 0
-44 -98 0
-3 -97 0
-3 -96 0
-3 95 0
-3 94 0
-11 96 0
-11 -95 0
-11 94 0
-19 -96 0
-19 -95 0
-19 94 0
-27 96 0
-27 95 0
-27 -94 0
-35 -96 0
-35 95 0
-35 -94 0
-43 96 0
-43 -95 0
-43 -94 0
-51 -96 0
-51 -95 0
-51 -94 0
51 44 37 30 23 16 9 0
-9 -93 0
-9 92 0
-9 91 0
-16 93 0
-16 -92 0
-16 91 0
-23 -93 0
-23 -92 0
-23 91 0
-30 93 0
-30 92 0
-30 -91 0
-37 -93 0
-37 92 0
-37 -91 0
-44 93 0
-44 -92 0
-44 -91 0
-51 -93 0
-51 -92 0
-51 -91 0
50 43 36 29 22 15 8 0
-8 -90 0
-8 89 0
-8 88 0
-15 90 0
-15 -89 0
-15 88 0
-22 -90 0
-22 -89 0
-22 88 0
-29 90 0
-29 89 0
-29 -88 0
-36 -90 0
-36 89 0
-36 -88 0
-43 90 0
-43 -89 0
-43 -88 0
-50 -90 0
-50 -89 0
-50 -88 0
49 42 35 28 21 14 7 0
-7 -87 0
-7 86 0
-7 85 0
-14 87 0
-14 -86 0
-14 85 0
-21 -87 0
-21 -86 0
-21 85 0
-28 87 0
-28 86 0
-28 -85 0
-35 -87 0
-35 86 0
-35 -85 0
-42 87 0
-42 -86 0
-42 -85 0
-49 -87 0
-49 -86 0
-49 -85 0
48 41 34 27 20 13 6 0
-6 -84 0
-6 83 0
-6 82 0
-13 84 0
-13 -83 0
-13 82 0
-20 -84 0
-20 -83 0
-20 82 0
-27 84 0
-27 83 0
-27 -82 0
-34 -84 0
-34 83 0
-34 -82 0
-41 84 0
-41 -83 0
-41 -82 0
-48 -84 0
-48 -83 0
-48 -82 0
47 40 33 26 19 12 5 0
-5 -81 0
-5 80 0
-5 79 0
-12 81 0
-12 -80 0
-12 79 0
-19 -81 0
-19 -80 0
-19 79 0
-26 81 0
-26 80 0
-26 -79 0
-33 -81 0
-33 80 0
-33 -79 0
-40 81 0
-40 -80 0
-40 -79 0
-47 -81 0
-47 -80 0
-47 -79 0
46 39 32 25 18 11 4 0
-4 -78 0
-4 77 0
-4 76 0
-11 78 0
-11 -77 0
-11 76 0
-18 -78 0
-18 -77 0
-18 76 0
-25 78 0
-25 77 0
-25 -76 0
-32 -78 0
-32 77 0
-32 -76 0
-39 78 0
-39 -77 0
-39 -76 0
-46 -78 0
-46 -77 0
-46 -76 0
45 38 31 24 17 10 3 0
-3 -75 0
-3 74 0
-3 73 0
-10 75 0
-10 -74 0
-10 73 0
-17 -75 0
-17 -74 0
-17 73 0
-24 75 0
-24 74 0
-24 -73 0
-31 -75 0
-31 74 0
-31 -73 0
-38 75 0
-38 -74 0
-38 -73 0
-45 -75 0
-45 -74 0
-45 -73 0
-51 -72 0
-51 71 0
-51 70 0
-50 72 0
-50 -71 0
-50 70 0
-49 -72 0
-49 -71 0
-49 70 0
-48 72 0
-48 71 0
-48 -70 0
-47 -72 0
-47 71 0
-47 -70 0
-46 72 0
-46 -71 0
-46 -70 0
-45 -72 0
-45 -71 0
-45 -70 0
-44 -69 0
-44 68 0
-44 67 0
-43 69 0
-43 -68 0
-43 67 0
-42 -69 0
-42 -68 0
-42 67 0
-41 69 0
-41 68 0
-41 -67 0
-40 -69 0
-40 68 0
-40 -67 0
-39 69 0
-39 -68 0
-39 -67 0
-38 -69 0
-38 -68 0
-38 -67 0
-37 -66 0
-37 65 0
-37 64 0
-36 66 0
-36 -65 0
-36 64 0
-35 -66 0
-35 -65 0
-35 64 0
-34 66 0
-34 65 0
-34 -64 0
-33 -66 0
-33 65 0
-33 -64 0
-32 66 0
-32 -65 0
-32 -64 0
-31 -66 0
-31 -65 0
-31 -64 0
-30 -63 0
-30 62 0
-30 61 0
-29 63 0
-29 -62 0
-29 61 0
-28 -63 0
-28 -62 0
-28 61 0
-27 63 0
-27 62 0
-27 -61 0
-26 -63 0
-26 62 0
-26 -61 0
-25 63 0
-25 -62 0
-25 -61 0
-24 -63 0
-24 -62 0
-24 -61 0
-23 -60 0
-23 59 0
-23 58 0
-22 60 0
-22 -59 0
-22 58 0
-21 -60 0
-21 -59 0
-21 58 0
-20 60 0
-20 59 0
-20 -58 0
-19 -60 0
-19 59 0
-19 -58 0
-18 60 0
-18 -59 0
-18 -58 0
-17 -60 0
-17 -59 0
-17 -58 0
-16 -57 0
-16 56 0
-16 55 0
-15 57 0
-15 -56 0
-15 55 0
-14 -57 0
-14 -56 0
-14 55 0
-13 57 0
-13 56 0
-13 -55 0
-12 -57 0
-12 56 0
-12 -55 0
-11 57 0
-11 -56 0
-11 -55 0
-10 -57 0
-10 -56 0
-10 -55 0
-9 -54 0
-9 53 0
-9 52 0
-8 54 0
-8 -53 0
-8 52 0
-7 -54 0
-7 -53 0
-7 52 0
-6 54 0
-6 53 0
-6 -52 0
-5 -54 0
-5 53 0
-5 -52 0
-4 54 0
-4 -53 0
-4 -52 0
-3 -54 0
-3 -53 0
-3 -52 0
1 0
-2 0
